255 255 255 255 255 255 255 255 255 255 255 255 255 255 255 255
255 255 255 255 255 255 255 255 255 255 255 255 255 255 255 255
255 255 255 255 255 255 255 255 255 255 255 255 255 255 255 255
255 255 255 255 255 255 255 255 255 255 255 255 255 255 255 255
255 255 255 255 255 255 255 255 255 255 255 255 255 255 255 255
249 202 182 182 200 248 230 184 177 216 239 188 182 187 228 254
238  87  68  91  49 171 109  57  81  81 174  43  72  69 117 243
237  71  68  98  16 121  37 174 231 203 200  22  89  75  77 238
237  71  44  16  78 185  34 186 235 194 197  22  36  82 188 252
237  73 123 132  18 147  91  65  93  60 161  25 144 255 255 255
248 188 206 237 164 205 216 162 153 198 232 170 214 255 255 255
255 255 255 255 255 255 255 254 253 254 255 255 255 255 255 255
255 255 255 255 255 255 255 255 255 255 255 255 255 255 255 255
255 255 255 255 255 255 255 255 255 255 255 255 255 255 255 255
255 255 255 255 255 255 255 255 255 255 255 255 255 255 255 255
255 255 255 255 255 255 255 255 255 255 255 255 255 255 255 255
255 255 255 255 255 255 255 255 255 255 255 255 255 255 255 255
255 255 255 255 255 255 255 255 255 255 255 255 255 255 255 255
255 255 255 255 255 255 255 255 255 255 255 255 255 255 255 255
255 255 255 255 255 255 255 255 255 255 255 255 255 255 255 255
255 255 255 255 255 255 255 255 255 255 255 255 255 255 255 255
249 202 182 182 200 248 230 184 177 216 239 188 182 187 228 254
238  87  68  91  49 171 109  57  81  81 174  43  72  69 117 243
237  71  68  98  16 121  37 174 231 203 200  22  89  75  77 238
237  71  44  16  78 185  34 186 235 194 197  22  36  82 188 252
237  73 123 132  18 147  91  65  93  60 161  25 144 255 255 255
248 188 206 237 164 205 216 162 153 198 232 170 214 255 255 255
255 255 255 255 255 255 255 254 253 254 255 255 255 255 255 255
255 255 255 255 255 255 255 255 255 255 255 255 255 255 255 255
255 255 255 255 255 255 255 255 255 255 255 255 255 255 255 255
255 255 255 255 255 255 255 255 255 255 255 255 255 255 255 255
255 255 255 255 255 255 255 255 255 255 255 255 255 255 255 255
255 255 255 255 255 255 255 255 255 255 255 255 255 255 255 255
255 255 255 255 255 255 255 255 255 255 255 255 255 255 255 255
255 255 255 255 255 255 255 255 255 255 255 255 255 255 255 255
255 255 255 255 255 255 255 255 255 255 255 255 255 255 255 255
255 255 255 255 255 255 255 255 255 255 255 255 255 255 255 255
249 202 182 182 200 248 230 184 177 216 239 188 182 187 228 254
238  87  68  91  49 171 109  57  81  81 174  43  72  69 117 243
237  71  68  98  16 121  37 174 231 203 200  22  89  75  77 238
237  71  44  16  78 185  34 186 235 194 197  22  36  82 188 252
237  73 123 132  18 147  91  65  93  60 161  25 144 255 255 255
248 188 206 237 164 205 216 162 153 198 232 170 214 255 255 255
255 255 255 255 255 255 255 254 253 254 255 255 255 255 255 255
255 255 255 255 255 255 255 255 255 255 255 255 255 255 255 255
255 255 255 255 255 255 255 255 255 255 255 255 255 255 255 255
255 255 255 255 255 255 255 255 255 255 255 255 255 255 255 255
255 255 255 255 255 255 255 255 255 255 255 255 255 255 255 255

255 255 255 255 255 254 244 239 253 255 255 255 255 255 255 255
255 255 255 255 255 228 117  78 189 255 255 255 255 255 255 255
255 255 255 255 255 188  69  75  83 255 255 255 255 255 255 255
255 255 255 255 255 182  72  89  37 144 214 255 255 255 255 255
255 255 255 255 255 189  44  23  23  25 170 255 255 255 255 255
255 255 255 255 255 240 175 200 197 162 233 255 255 255 255 255
255 255 255 255 255 216  81 203 194  61 199 255 255 255 255 255
255 255 255 255 255 177  81 231 236  94 154 253 255 255 255 255
255 255 255 255 255 184  58 174 186  66 162 254 255 255 255 255
255 255 255 255 255 230 110  37  34  92 217 255 255 255 255 255
255 255 255 255 255 248 171 121 185 148 206 255 255 255 255 255
255 255 255 255 255 200  49  17  78  19 165 255 255 255 255 255
255 255 255 255 255 183  92  98  17 133 237 255 255 255 255 255
255 255 255 255 255 182  68  69  44 123 207 255 255 255 255 255
255 255 255 255 255 203  88  71  71  73 188 255 255 255 255 255
255 255 255 255 255 250 239 237 237 238 249 255 255 255 255 255
255 255 255 255 255 254 244 239 253 255 255 255 255 255 255 255
255 255 255 255 255 228 117  78 189 255 255 255 255 255 255 255
255 255 255 255 255 188  69  75  83 255 255 255 255 255 255 255
255 255 255 255 255 182  72  89  37 144 214 255 255 255 255 255
255 255 255 255 255 189  44  23  23  25 170 255 255 255 255 255
255 255 255 255 255 240 175 200 197 162 233 255 255 255 255 255
255 255 255 255 255 216  81 203 194  61 199 255 255 255 255 255
255 255 255 255 255 177  81 231 236  94 154 253 255 255 255 255
255 255 255 255 255 184  58 174 186  66 162 254 255 255 255 255
255 255 255 255 255 230 110  37  34  92 217 255 255 255 255 255
255 255 255 255 255 248 171 121 185 148 206 255 255 255 255 255
255 255 255 255 255 200  49  17  78  19 165 255 255 255 255 255
255 255 255 255 255 183  92  98  17 133 237 255 255 255 255 255
255 255 255 255 255 182  68  69  44 123 207 255 255 255 255 255
255 255 255 255 255 203  88  71  71  73 188 255 255 255 255 255
255 255 255 255 255 250 239 237 237 238 249 255 255 255 255 255
255 255 255 255 255 254 244 239 253 255 255 255 255 255 255 255
255 255 255 255 255 228 117  78 189 255 255 255 255 255 255 255
255 255 255 255 255 188  69  75  83 255 255 255 255 255 255 255
255 255 255 255 255 182  72  89  37 144 214 255 255 255 255 255
255 255 255 255 255 189  44  23  23  25 170 255 255 255 255 255
255 255 255 255 255 240 175 200 197 162 233 255 255 255 255 255
255 255 255 255 255 216  81 203 194  61 199 255 255 255 255 255
255 255 255 255 255 177  81 231 236  94 154 253 255 255 255 255
255 255 255 255 255 184  58 174 186  66 162 254 255 255 255 255
255 255 255 255 255 230 110  37  34  92 217 255 255 255 255 255
255 255 255 255 255 248 171 121 185 148 206 255 255 255 255 255
255 255 255 255 255 200  49  17  78  19 165 255 255 255 255 255
255 255 255 255 255 183  92  98  17 133 237 255 255 255 255 255
255 255 255 255 255 182  68  69  44 123 207 255 255 255 255 255
255 255 255 255 255 203  88  71  71  73 188 255 255 255 255 255
255 255 255 255 255 250 239 237 237 238 249 255 255 255 255 255

255 255 255 255 255 255 255 255 255 255 255 255 255 255 255 255
255 255 255 255 255 255 255 255 255 255 255 255 255 255 255 255
255 255 255 255 255 255 255 255 255 255 255 255 255 255 255 255
255 255 255 255 255 255 255 255 255 255 255 255 255 255 255 255
255 255 255 255 255 255 255 253 254 255 255 255 255 255 255 255
255 255 255 214 170 233 199 154 162 217 206 165 237 207 188 249
255 255 255 144  25 162  61  94  66  92 148  19 133 123  73 238
253 189  83  37  23 197 194 236 186  34 185  78  17  44  71 237
239  78  75  89  23 200 203 231 174  37 121  17  98  69  71 237
244 117  69  72  44 175  81  81  58 110 171  49  92  68  88 239
254 228 188 182 189 240 216 177 184 230 248 200 183 182 203 250
255 255 255 255 255 255 255 255 255 255 255 255 255 255 255 255
255 255 255 255 255 255 255 255 255 255 255 255 255 255 255 255
255 255 255 255 255 255 255 255 255 255 255 255 255 255 255 255
255 255 255 255 255 255 255 255 255 255 255 255 255 255 255 255
255 255 255 255 255 255 255 255 255 255 255 255 255 255 255 255
255 255 255 255 255 255 255 255 255 255 255 255 255 255 255 255
255 255 255 255 255 255 255 255 255 255 255 255 255 255 255 255
255 255 255 255 255 255 255 255 255 255 255 255 255 255 255 255
255 255 255 255 255 255 255 255 255 255 255 255 255 255 255 255
255 255 255 255 255 255 255 253 254 255 255 255 255 255 255 255
255 255 255 214 170 233 199 154 162 217 206 165 237 207 188 249
255 255 255 144  25 162  61  94  66  92 148  19 133 123  73 238
253 189  83  37  23 197 194 236 186  34 185  78  17  44  71 237
239  78  75  89  23 200 203 231 174  37 121  17  98  69  71 237
244 117  69  72  44 175  81  81  58 110 171  49  92  68  88 239
254 228 188 182 189 240 216 177 184 230 248 200 183 182 203 250
255 255 255 255 255 255 255 255 255 255 255 255 255 255 255 255
255 255 255 255 255 255 255 255 255 255 255 255 255 255 255 255
255 255 255 255 255 255 255 255 255 255 255 255 255 255 255 255
255 255 255 255 255 255 255 255 255 255 255 255 255 255 255 255
255 255 255 255 255 255 255 255 255 255 255 255 255 255 255 255
255 255 255 255 255 255 255 255 255 255 255 255 255 255 255 255
255 255 255 255 255 255 255 255 255 255 255 255 255 255 255 255
255 255 255 255 255 255 255 255 255 255 255 255 255 255 255 255
255 255 255 255 255 255 255 255 255 255 255 255 255 255 255 255
255 255 255 255 255 255 255 253 254 255 255 255 255 255 255 255
255 255 255 214 170 233 199 154 162 217 206 165 237 207 188 249
255 255 255 144  25 162  61  94  66  92 148  19 133 123  73 238
253 189  83  37  23 197 194 236 186  34 185  78  17  44  71 237
239  78  75  89  23 200 203 231 174  37 121  17  98  69  71 237
244 117  69  72  44 175  81  81  58 110 171  49  92  68  88 239
254 228 188 182 189 240 216 177 184 230 248 200 183 182 203 250
255 255 255 255 255 255 255 255 255 255 255 255 255 255 255 255
255 255 255 255 255 255 255 255 255 255 255 255 255 255 255 255
255 255 255 255 255 255 255 255 255 255 255 255 255 255 255 255
255 255 255 255 255 255 255 255 255 255 255 255 255 255 255 255
255 255 255 255 255 255 255 255 255 255 255 255 255 255 255 255

255 255 255 255 255 249 238 237 237 239 250 255 255 255 255 255
255 255 255 255 255 188  73  71  71  88 203 255 255 255 255 255
255 255 255 255 255 207 123  44  69  68 182 255 255 255 255 255
255 255 255 255 255 237 133  17  98  92 183 255 255 255 255 255
255 255 255 255 255 165  19  78  17  49 200 255 255 255 255 255
255 255 255 255 255 206 148 185 121 171 248 255 255 255 255 255
255 255 255 255 255 217  92  34  37 110 230 255 255 255 255 255
255 255 255 255 254 162  66 186 174  58 184 255 255 255 255 255
255 255 255 255 253 154  94 236 231  81 177 255 255 255 255 255
255 255 255 255 255 199  61 194 203  81 216 255 255 255 255 255
255 255 255 255 255 233 162 197 200 175 240 255 255 255 255 255
255 255 255 255 255 170  25  23  23  44 189 255 255 255 255 255
255 255 255 255 255 214 144  37  89  72 182 255 255 255 255 255
255 255 255 255 255 255 255  83  75  69 188 255 255 255 255 255
255 255 255 255 255 255 255 189  78 117 228 255 255 255 255 255
255 255 255 255 255 255 255 253 239 244 254 255 255 255 255 255
255 255 255 255 255 249 238 237 237 239 250 255 255 255 255 255
255 255 255 255 255 188  73  71  71  88 203 255 255 255 255 255
255 255 255 255 255 207 123  44  69  68 182 255 255 255 255 255
255 255 255 255 255 237 133  17  98  92 183 255 255 255 255 255
255 255 255 255 255 165  19  78  17  49 200 255 255 255 255 255
255 255 255 255 255 206 148 185 121 171 248 255 255 255 255 255
255 255 255 255 255 217  92  34  37 110 230 255 255 255 255 255
255 255 255 255 254 162  66 186 174  58 184 255 255 255 255 255
255 255 255 255 253 154  94 236 231  81 177 255 255 255 255 255
255 255 255 255 255 199  61 194 203  81 216 255 255 255 255 255
255 255 255 255 255 233 162 197 200 175 240 255 255 255 255 255
255 255 255 255 255 170  25  23  23  44 189 255 255 255 255 255
255 255 255 255 255 214 144  37  89  72 182 255 255 255 255 255
255 255 255 255 255 255 255  83  75  69 188 255 255 255 255 255
255 255 255 255 255 255 255 189  78 117 228 255 255 255 255 255
255 255 255 255 255 255 255 253 239 244 254 255 255 255 255 255
255 255 255 255 255 249 238 237 237 239 250 255 255 255 255 255
255 255 255 255 255 188  73  71  71  88 203 255 255 255 255 255
255 255 255 255 255 207 123  44  69  68 182 255 255 255 255 255
255 255 255 255 255 237 133  17  98  92 183 255 255 255 255 255
255 255 255 255 255 165  19  78  17  49 200 255 255 255 255 255
255 255 255 255 255 206 148 185 121 171 248 255 255 255 255 255
255 255 255 255 255 217  92  34  37 110 230 255 255 255 255 255
255 255 255 255 254 162  66 186 174  58 184 255 255 255 255 255
255 255 255 255 253 154  94 236 231  81 177 255 255 255 255 255
255 255 255 255 255 199  61 194 203  81 216 255 255 255 255 255
255 255 255 255 255 233 162 197 200 175 240 255 255 255 255 255
255 255 255 255 255 170  25  23  23  44 189 255 255 255 255 255
255 255 255 255 255 214 144  37  89  72 182 255 255 255 255 255
255 255 255 255 255 255 255  83  75  69 188 255 255 255 255 255
255 255 255 255 255 255 255 189  78 117 228 255 255 255 255 255
255 255 255 255 255 255 255 253 239 244 254 255 255 255 255 255
